RST08
Position Depot: Random
Horizon for Depot: Small
Position of customers: Random
Distribution of the demand: Large
Width of time windows: Tight
Distribution of the service: Small

VEHICLE 
NUMBER 	 CAPACITY 
 10 	 	 262 
 
CUSTOMER
CUST NO. 	 XCOORD.  	 YCOORD. 	 DEMAND 	 READY TIME 	 DUE DATE 	 SERVICE TIME 
 0 	 	 967 	 	 662 	 	 0 	 	 0 	 	 1772 	 	 0 
  1 	 	 785 	 	 61 	 	 5 	 	 1044 	 	 1103 	 	 61 
  2 	 	 227 	 	 628 	 	 93 	 	 630 	 	 814 	 	 57 
  3 	 	 778 	 	 589 	 	 40 	 	 348 	 	 407 	 	 87 
  4 	 	 109 	 	 489 	 	 20 	 	 1500 	 	 1615 	 	 57 
  5 	 	 568 	 	 800 	 	 11 	 	 1320 	 	 1454 	 	 58 
  6 	 	 824 	 	 236 	 	 30 	 	 607 	 	 769 	 	 72 
  7 	 	 579 	 	 784 	 	 92 	 	 1344 	 	 1396 	 	 86 
  8 	 	 943 	 	 67 	 	 94 	 	 461 	 	 657 	 	 85 
  9 	 	 861 	 	 189 	 	 2 	 	 1435 	 	 1624 	 	 91 
  10 	 	 770 	 	 378 	 	 77 	 	 505 	 	 698 	 	 60 
  11 	 	 640 	 	 11 	 	 63 	 	 1083 	 	 1175 	 	 73 
  12 	 	 590 	 	 805 	 	 65 	 	 1629 	 	 1772 	 	 94 
  13 	 	 782 	 	 565 	 	 55 	 	 938 	 	 1108 	 	 72 
  14 	 	 869 	 	 418 	 	 13 	 	 1355 	 	 1424 	 	 56 
  15 	 	 809 	 	 841 	 	 30 	 	 1586 	 	 1719 	 	 63 
  16 	 	 38 	 	 718 	 	 78 	 	 1170 	 	 1235 	 	 87 
  17 	 	 360 	 	 226 	 	 99 	 	 1471 	 	 1627 	 	 74 
  18 	 	 922 	 	 52 	 	 86 	 	 512 	 	 672 	 	 98 
  19 	 	 831 	 	 896 	 	 93 	 	 1146 	 	 1267 	 	 92 
  20 	 	 896 	 	 990 	 	 75 	 	 733 	 	 801 	 	 56 
  21 	 	 336 	 	 871 	 	 23 	 	 637 	 	 786 	 	 79 
  22 	 	 162 	 	 746 	 	 23 	 	 773 	 	 943 	 	 62 
  23 	 	 27 	 	 512 	 	 96 	 	 947 	 	 1047 	 	 92 
  24 	 	 656 	 	 187 	 	 86 	 	 568 	 	 624 	 	 55 
  25 	 	 195 	 	 463 	 	 33 	 	 724 	 	 876 	 	 67 
  26 	 	 843 	 	 431 	 	 96 	 	 402 	 	 567 	 	 57 
  27 	 	 71 	 	 217 	 	 27 	 	 1043 	 	 1100 	 	 61 
  28 	 	 421 	 	 644 	 	 63 	 	 833 	 	 967 	 	 61 
  29 	 	 690 	 	 196 	 	 54 	 	 449 	 	 596 	 	 94 
  30 	 	 372 	 	 370 	 	 12 	 	 975 	 	 1142 	 	 83 
  31 	 	 694 	 	 571 	 	 89 	 	 216 	 	 316 	 	 67 
  32 	 	 365 	 	 367 	 	 4 	 	 625 	 	 737 	 	 77 
  33 	 	 332 	 	 377 	 	 87 	 	 1161 	 	 1323 	 	 79 
  34 	 	 922 	 	 730 	 	 96 	 	 1433 	 	 1511 	 	 96 
  35 	 	 565 	 	 780 	 	 5 	 	 1254 	 	 1357 	 	 99 
  36 	 	 350 	 	 79 	 	 56 	 	 821 	 	 933 	 	 53 
  37 	 	 318 	 	 96 	 	 40 	 	 1111 	 	 1198 	 	 77 
  38 	 	 369 	 	 529 	 	 11 	 	 1536 	 	 1664 	 	 54 
  39 	 	 453 	 	 489 	 	 21 	 	 400 	 	 596 	 	 50 
  40 	 	 546 	 	 30 	 	 26 	 	 1598 	 	 1701 	 	 70 
  41 	 	 611 	 	 93 	 	 75 	 	 720 	 	 875 	 	 82 
  42 	 	 823 	 	 671 	 	 49 	 	 1268 	 	 1463 	 	 71 
  43 	 	 387 	 	 448 	 	 37 	 	 982 	 	 1123 	 	 62 
  44 	 	 143 	 	 971 	 	 69 	 	 1226 	 	 1352 	 	 84 
  45 	 	 882 	 	 861 	 	 13 	 	 1407 	 	 1581 	 	 72 
  46 	 	 406 	 	 735 	 	 24 	 	 1323 	 	 1381 	 	 55 
  47 	 	 504 	 	 994 	 	 88 	 	 476 	 	 626 	 	 59 
  48 	 	 995 	 	 594 	 	 95 	 	 232 	 	 328 	 	 82 
  49 	 	 70 	 	 759 	 	 51 	 	 1094 	 	 1193 	 	 83 
  50 	 	 401 	 	 785 	 	 46 	 	 1324 	 	 1524 	 	 76 
 